sat
(:added-eqs                       24054
 :arith-eq-adapter                3534
 :arith-bound-propagations-lp     153
 :arith-conflicts                 1539
 :arith-diseq                     430
 :arith-fixed-eqs                 438
 :arith-gcd-calls                 4
 :arith-horner-calls              43
 :arith-horner-cross-nested-forms 7890
 :arith-lower                     5426
 :arith-make-feasible             2125
 :arith-max-columns               14203
 :arith-max-rows                  5740
 :arith-nla-add-bounds            133
 :arith-nla-lemmas                920
 :arith-nla-propagate-bounds      558
 :arith-nla-propagate-eq          23453
 :arith-nra-calls                 8
 :arith-offset-eqs                1982
 :arith-patches                   4
 :arith-patches-success           4
 :arith-upper                     6981
 :binary-propagations             45890
 :card2bv-rewrites                2
 :cnf-encoding-aux-vars           156
 :conflicts                       131
 :decisions                       29490
 :del-clause                      658
 :elim-unconstrained              899
 :final-checks                    333
 :max-memory                      160.85
 :memory                          102.03
 :minimized-lits                  1
 :mk-bool-var                     19150
 :mk-clause                       4464
 :mk-clause-binary                51697
 :nlsat-conflicts                 3226
 :nlsat-decisions                 2564
 :nlsat-propagations              742784
 :nlsat-restarts                  3
 :nlsat-stages                    231795
 :num-allocs                      33148775424.00
 :num-checks                      1
 :propagations                    48621
 :restarts                        1
 :rlimit-count                    10723682
 :solve-eqs-elim-vars             759
 :solve-eqs-steps                 7226
 :time                            4.49
 :total-time                      4.54)
